
Gurobi 9.5.2 (win64) logging started Mon Mar 27 20:25:52 2023

Set parameter LogFile to value "2023-03-27_20hr-25min-09sec/Nodes10_Arcs35_LocNodes8/Formulation-2Instance-1.log"
Set parameter TimeLimit to value 600
Set parameter IntFeasTol to value 1e-09
Set parameter DualReductions to value 0
Set parameter NonConvex to value 2
Gurobi Optimizer version 9.5.2 build v9.5.2rc0 (win64)
Thread count: 4 physical cores, 8 logical processors, using up to 8 threads
Optimize a model with 64 rows, 116 columns and 282 nonzeros
Model fingerprint: 0x07e90fff
Model has 45 quadratic objective terms
Model has 45 SOS constraints
Variable types: 108 continuous, 8 integer (8 binary)
Coefficient statistics:
  Matrix range     [3e-02, 2e+02]
  Objective range  [3e-02, 1e+03]
  QObjective range [6e-02, 8e+00]
  Bounds range     [1e+00, 1e+00]
  RHS range        [3e-02, 1e+03]
Presolve time: 0.00s
Presolved: 64 rows, 116 columns, 282 nonzeros
Presolved model has 45 SOS constraint(s)
Presolved model has 45 quadratic objective terms
Variable types: 108 continuous, 8 integer (8 binary)

Root relaxation: objective 3.792154e+04, 154 iterations, 0.00 seconds (0.00 work units)

    Nodes    |    Current Node    |     Objective Bounds      |     Work
 Expl Unexpl |  Obj  Depth IntInf | Incumbent    BestBd   Gap | It/Node Time

     0     0 37921.5371    0    9          - 37921.5371      -     -    0s
H    0     0                    35767.919353 37921.5371  6.02%     -    0s
H    0     0                    37387.725994 37921.5371  1.43%     -    0s
H    0     0                    37516.447965 37921.5371  1.08%     -    0s
H    0     0                    37636.649230 37921.5371  0.76%     -    0s

Cutting planes:
  Flow cover: 1

Explored 1 nodes (154 simplex iterations) in 0.08 seconds (0.02 work units)
Thread count was 8 (of 8 available processors)

Solution count 4: 37636.6 37516.4 37387.7 35767.9 

Optimal solution found (tolerance 1.00e-04)
Best objective 3.763664923042e+04, best bound 3.763664923042e+04, gap 0.0000%

User-callback calls 171, time in user-callback 0.00 sec
